c description: Random 3-CNF over 17 variables and 72 clauses
c generator: CNFgen (0.9.2)
c copyright: (C) 2012-2022 Massimo Lauria <massimo.lauria@uniroma1.it>
c url: https://massimolauria.net/cnfgen
c command line: cnfgen --output CNF_4.28/17_bit_72_958.cnf randkcnf 3 17 72
c
p cnf 17 72
-7 -9 -12 0
-2 3 -12 0
-3 9 15 0
-8 9 -11 0
-7 15 16 0
-5 11 -14 0
1 -3 9 0
7 -8 12 0
-4 -5 14 0
-12 -14 -15 0
11 12 15 0
-1 -7 -10 0
1 -4 -14 0
-4 -5 -7 0
5 -7 14 0
3 -11 -16 0
2 -4 7 0
8 15 16 0
3 8 12 0
6 -10 16 0
3 10 -16 0
9 12 -17 0
-9 11 13 0
5 7 -12 0
7 10 -16 0
4 -14 -15 0
2 11 -14 0
-6 11 12 0
9 11 12 0
-1 13 -15 0
-6 -13 -14 0
6 -9 -11 0
-12 13 14 0
-5 10 -11 0
-4 -10 -17 0
5 -10 -17 0
-5 6 -14 0
-5 -7 -9 0
2 12 14 0
3 4 -6 0
-9 11 -16 0
-7 12 -16 0
-6 -7 9 0
-2 -7 -16 0
8 11 -14 0
3 8 15 0
-6 -9 13 0
9 12 -14 0
6 -11 -14 0
-7 -9 -15 0
1 -2 9 0
-6 -9 10 0
-1 -3 13 0
2 -10 -15 0
-7 -8 9 0
10 -13 -15 0
3 -6 17 0
1 -14 -15 0
-6 -8 14 0
2 8 -17 0
1 5 9 0
-1 -6 -14 0
4 8 13 0
9 -14 15 0
-1 -4 -14 0
4 -8 11 0
-4 -9 14 0
-6 11 -13 0
-5 -8 17 0
1 7 8 0
1 -7 -10 0
-1 8 -13 0
